p cnf 50 15
x -3 -4 -5 -6 -8 -9 10 -12 -15 -16 -17 -25 26 30 -32 33 34 -36 -38 39 42 44 45 47 48 -50 0
x -2 -3 -6 -8 -11 -12 13 16 -19 21 -29 -30 34 -36 38 -39 42 -43 48 -49 0
x 1 -2 -3 4 -5 -7 -16 -22 -23 25 28 -32 -34 36 40 -42 45 -48 50 0
x -1 4 5 -6 -8 -10 12 -14 15 17 -18 -19 -23 -26 -28 -31 -32 -33 34 36 -37 -39 40 -47 -48 49 0
x 1 2 3 7 11 -17 -19 21 22 -23 -24 -25 33 35 36 -37 -40 -44 -45 -48 0
x 1 4 6 -9 -11 -12 -15 17 19 -20 21 22 -24 -25 -28 33 39 40 41 43 -45 -46 -48 49 0
x -6 8 -9 11 -18 19 -20 21 22 25 26 28 -30 31 -32 -35 37 -39 40 41 -44 47 -50 0
x 2 4 5 8 9 -11 -16 -17 18 19 -21 -22 24 -27 28 31 -34 -35 -39 43 45 46 -48 0
x -1 -5 -9 -11 13 -14 -16 -19 -22 -24 27 28 30 -31 -32 34 -35 -37 40 42 43 -44 -46 48 50 0
x 3 5 -6 -7 8 -10 12 15 17 -18 19 -21 -22 23 24 -26 -27 28 -29 -31 34 -35 -37 -39 40 43 46 0
x -1 -3 9 13 16 -19 22 -23 -24 -25 -26 -27 28 31 -33 -35 36 42 44 46 49 50 0
x -5 -8 9 -20 25 28 29 -30 -31 -33 -34 -38 39 -41 -42 45 47 49 0
x 2 4 -5 6 7 8 -9 12 14 -16 -19 20 21 25 -26 28 31 32 34 36 37 -39 -40 45 46 -49 0
x 1 -2 -5 -7 8 9 -13 -15 16 18 -22 23 25 26 -27 -30 34 35 -37 -38 -40 41 -42 43 44 -46 -48 -50 0
x -1 2 3 4 7 -8 9 10 -15 16 17 -20 -21 22 -25 -26 -27 -28 -29 31 -32 35 38 -41 -43 44 45 -48 49 0
g -10